verb

# Geometry
name main-geometry
vectors
5.380000 0.000000 0.000000
0.000000 5.380000 0.000000
0.000000 0.000000 5.380000
cartesian
Fe core 0.000000 0.000000 0.000000
Fe core 2.690000 0.000000 2.690000
Fe core 0.000000 2.690000 2.690000
Fe core 2.690000 2.690000 0.000000
S core 1.818440 1.818440 1.818440
S core 3.561560 3.561560 3.561560
S core 0.871560 3.561560 4.508440
S core 4.508440 1.818440 0.871560
S core 3.561560 4.508440 0.871560
S core 1.818440 0.871560 4.508440
S core 4.508440 0.871560 3.561560
S core 0.871560 4.508440 1.818440

# Force Field
lennard 12 6
Fe core Fe core 1.00000000E+00 1.00000000E+00 12.00000
lennard 12 6
Fe core S core  1.00000000E+00 1.00000000E+00 12.00000
lennard 12 6
S core  S core  1.00000000E+00 1.00000000E+00 12.00000
