fit noflags

shift
1.0

name marcasite
vectors
3.370000 0.000000 0.000000
0.000000 4.440000 0.000000
0.000000 0.000000 5.390000
cartesian
Fe core 0.000000 0.000000 0.000000
Fe core 1.685000 2.220000 2.695000
S core 0.000000 0.901320 2.021250
S core 0.000000 3.538680 3.368750
S core 1.685000 1.318680 4.716250
S core 1.685000 3.121320 0.673750

observables
energy ev
-1.00000000 100.00000000
end

name pyrite
vectors
5.380000 0.000000 0.000000
0.000000 5.380000 0.000000
0.000000 0.000000 5.380000
cartesian
Fe core 0.000000 0.000000 0.000000
Fe core 2.690000 0.000000 2.690000
Fe core 0.000000 2.690000 2.690000
Fe core 2.690000 2.690000 0.000000
S core 1.818440 1.818440 1.818440
S core 3.561560 3.561560 3.561560
S core 0.871560 3.561560 4.508440
S core 4.508440 1.818440 0.871560
S core 3.561560 4.508440 0.871560
S core 1.818440 0.871560 4.508440
S core 4.508440 0.871560 3.561560
S core 0.871560 4.508440 1.818440

observables
energy ev
-1.00000000 100.00000000
end

name zincblende
vectors
5.420000 0.000000 0.000000
0.000000 5.420000 0.000000
0.000000 0.000000 5.420000
cartesian
Fe core 0.000000 0.000000 0.000000
Fe core 2.710000 2.710000 0.000000
Fe core 0.000000 2.710000 2.710000
Fe core 2.710000 0.000000 2.710000
S core 1.355000 1.355000 1.355000
S core 4.065000 4.065000 1.355000
S core 1.355000 4.065000 4.065000
S core 4.065000 1.355000 4.065000

observables
energy ev
1.00000000 100.00000000
end

vary
shift
end

lennard 12 6
Fe core Fe core 1.0 1.0 12.0 1 1
lennard 12 6
Fe core S core  1.0 1.0 12.0 0 0
lennard 12 6
S core  S core  1.0 1.0 12.0 0 0
