optimise verb conp cg

# Geometry
name main-geometry
vectors
5.380000 0.000000 0.000000
0.000000 5.380000 0.000000
0.000000 0.000000 5.380000
cartesian
Fe core 0.000000 0.000000 0.000000
S core 1.818440 1.818440 1.818440
symmetry_cell cubic
symmetry_operator
-1.00000  0.00000  0.00000  0.00000
 0.00000 -1.00000  0.00000  0.00000
 0.00000  0.00000 -1.00000  0.00000
symmetry_operator
-1.00000  0.00000  0.00000  0.50000
 0.00000 -1.00000  0.00000  0.00000
 0.00000  0.00000  1.00000  0.50000
symmetry_operator
 1.00000  0.00000  0.00000  0.50000
 0.00000  1.00000  0.00000  0.00000
 0.00000  0.00000 -1.00000  0.50000
symmetry_operator
 1.00000  0.00000  0.00000  0.50000
 0.00000 -1.00000  0.00000  0.50000
 0.00000  0.00000 -1.00000  0.00000
symmetry_operator
-1.00000  0.00000  0.00000  0.50000
 0.00000  1.00000  0.00000  0.50000
 0.00000  0.00000  1.00000  0.00000
symmetry_operator
-1.00000  0.00000  0.00000  0.00000
 0.00000  1.00000  0.00000  0.50000
 0.00000  0.00000 -1.00000  0.50000
symmetry_operator
 1.00000  0.00000  0.00000  0.00000
 0.00000 -1.00000  0.00000  0.50000
 0.00000  0.00000  1.00000  0.50000
symmetry_operator
 0.00000  1.00000  0.00000  0.00000
 0.00000  0.00000  1.00000  0.00000
 1.00000  0.00000  0.00000  0.00000
symmetry_operator
 0.00000 -1.00000  0.00000  0.00000
 0.00000  0.00000 -1.00000  0.00000
-1.00000  0.00000  0.00000  0.00000
symmetry_operator
 0.00000 -1.00000  0.00000  0.50000
 0.00000  0.00000 -1.00000  0.50000
 1.00000  0.00000  0.00000  0.00000
symmetry_operator
 0.00000  1.00000  0.00000  0.50000
 0.00000  0.00000  1.00000  0.50000
-1.00000  0.00000  0.00000  0.00000
symmetry_operator
 0.00000  1.00000  0.00000  0.00000
 0.00000  0.00000 -1.00000  0.50000
-1.00000  0.00000  0.00000  0.50000
symmetry_operator
 0.00000 -1.00000  0.00000  0.00000
 0.00000  0.00000  1.00000  0.50000
 1.00000  0.00000  0.00000  0.50000
symmetry_operator
 0.00000 -1.00000  0.00000  0.50000
 0.00000  0.00000  1.00000  0.00000
-1.00000  0.00000  0.00000  0.50000
symmetry_operator
 0.00000  1.00000  0.00000  0.50000
 0.00000  0.00000 -1.00000  0.00000
 1.00000  0.00000  0.00000  0.50000
symmetry_operator
 0.00000  0.00000  1.00000  0.00000
 1.00000  0.00000  0.00000  0.00000
 0.00000  1.00000  0.00000  0.00000
symmetry_operator
 0.00000  0.00000 -1.00000  0.00000
-1.00000  0.00000  0.00000  0.00000
 0.00000 -1.00000  0.00000  0.00000
symmetry_operator
 0.00000  0.00000 -1.00000  0.00000
-1.00000  0.00000  0.00000  0.50000
 0.00000  1.00000  0.00000  0.50000
symmetry_operator
 0.00000  0.00000  1.00000  0.00000
 1.00000  0.00000  0.00000  0.50000
 0.00000 -1.00000  0.00000  0.50000
symmetry_operator
 0.00000  0.00000  1.00000  0.50000
-1.00000  0.00000  0.00000  0.00000
 0.00000 -1.00000  0.00000  0.50000
symmetry_operator
 0.00000  0.00000 -1.00000  0.50000
 1.00000  0.00000  0.00000  0.00000
 0.00000  1.00000  0.00000  0.50000
symmetry_operator
 0.00000  0.00000 -1.00000  0.50000
 1.00000  0.00000  0.00000  0.50000
 0.00000 -1.00000  0.00000  0.00000
symmetry_operator
 0.00000  0.00000  1.00000  0.50000
-1.00000  0.00000  0.00000  0.50000
 0.00000  1.00000  0.00000  0.00000

# Force Field
lennard 12 6
Fe Fe 1.0 1.0 12.0
Fe S 1.0 1.0 12.0
S S 1.0 1.0 12.0

# Other Options
maxcyc opt 100

# External Outputs
output cif output.cif
